(declare-fun A () Bool)
(declare-fun B () Bool)
(declare-fun C () Int)
(declare-fun D () Int)
(declare-fun E () Int)
(declare-fun F () Bool)
(declare-fun G () Bool)
(assert (and (and (= A true) (not G) (not F) (not B)) (not (state B A G F C D E))))
(check-sat)
